p cnf 40 898
-1 -2 -3 -4 0
-1 -2 -3 0
-1 -2 -3 0
-1 -2 -4 0
-1 -2 -4 0
-1 -2 0
-1 -3 -4 0
-1 -3 -4 0
-1 -3 0
-1 -4 0
-2 -3 -4 0
-2 -3 -4 0
-2 -3 0
-2 -4 0
-3 -4 0
1 2 3 4 0
-5 -6 -7 0
-5 -6 -8 0
-5 -7 -8 0
-5 -6 -7 -8 0
-6 -7 -8 0
5 6 7 0
5 6 8 0
5 7 8 0
6 7 8 0
5 6 7 8 0
-9 -10 -11 0
-9 -10 0
-9 -10 -12 0
-9 -11 0
-9 -11 -12 0
-9 -12 0
-9 -10 -11 0
-9 -10 -11 -12 0
-9 -10 -12 0
-9 -11 -12 0
-10 -11 0
-10 -11 -12 0
-10 -12 0
-11 -12 0
-10 -11 -12 0
9 10 11 12 0
-13 -14 -15 0
-13 -14 -16 0
-13 -14 -17 0
-13 -15 -16 0
-13 -15 -17 0
-13 -16 -17 0
-14 -15 -16 0
-14 -15 -17 0
-14 -16 -17 0
-15 -16 -17 0
-13 -14 -15 -16 0
-13 -14 -15 -17 0
-13 -14 -16 -17 0
-13 -15 -16 -17 0
-14 -15 -16 -17 0
13 14 15 16 0
13 14 15 17 0
13 14 16 17 0
13 15 16 17 0
14 15 16 17 0
-18 -19 -20 -21 0
-18 -19 -20 -22 0
-18 -19 -20 0
-18 -19 -21 -22 0
-18 -19 -21 0
-18 -19 -22 0
-18 -20 -21 -22 0
-18 -20 -21 0
-18 -20 -22 0
-18 -21 -22 0
-19 -20 -21 -22 0
-19 -20 -21 0
-19 -20 -22 0
-19 -21 -22 0
-20 -21 -22 0
18 19 20 21 0
18 19 20 22 0
18 19 21 22 0
18 20 21 22 0
19 20 21 22 0
-23 -24 0
-23 -24 -25 0
-23 -25 0
-24 -25 0
-23 -24 -25 0
23 24 25 0
-26 -27 -28 -29 0
-26 -27 -28 -30 0
-26 -27 -29 -30 0
-26 -28 -29 -30 0
-27 -28 -29 -30 0
26 27 28 29 0
26 27 28 30 0
26 27 28 0
26 27 29 30 0
26 27 29 0
26 27 30 0
26 28 29 30 0
26 28 29 0
26 28 30 0
26 29 30 0
27 28 29 30 0
27 28 29 0
27 28 30 0
27 29 30 0
28 29 30 0
-31 -32 -33 -34 0
-31 -32 -33 -35 0
-31 -32 -34 -35 0
-31 -33 -34 -35 0
-32 -33 -34 -35 0
31 32 33 0
31 32 34 0
31 32 35 0
31 33 34 0
31 33 35 0
31 34 35 0
31 32 33 34 0
31 32 33 35 0
31 32 34 35 0
31 33 34 35 0
32 33 34 0
32 33 35 0
32 34 35 0
33 34 35 0
32 33 34 35 0
-36 -37 -38 -39 0
-36 -37 -38 -40 0
-36 -37 -39 -40 0
-36 -38 -39 -40 0
-37 -38 -39 -40 0
36 37 38 39 0
36 37 38 0
36 37 38 40 0
36 37 39 0
36 37 39 40 0
36 37 40 0
36 38 39 0
36 38 39 40 0
36 38 40 0
36 39 40 0
37 38 39 0
37 38 39 40 0
37 38 40 0
37 39 40 0
38 39 40 0
-1 -9 -18 -26 0
-1 -9 -18 -31 0
-1 -9 -18 -36 0
-1 -9 -18 -26 -31 0
-1 -9 -18 -26 -36 0
-1 -9 -18 -31 -36 0
-1 -9 -26 -31 0
-1 -9 -26 -36 0
-1 -9 -31 -36 0
-1 -9 -26 -31 -36 0
-1 -9 -18 -26 -31 0
-1 -9 -18 -26 -36 0
-1 -9 -18 -31 -36 0
-1 -9 -18 -26 -31 -36 0
-1 -9 -26 -31 -36 0
-1 -18 -26 -31 0
-1 -18 -26 -36 0
-1 -18 -31 -36 0
-1 -18 -26 -31 -36 0
-1 -26 -31 -36 0
-1 -18 -26 -31 -36 0
-9 -18 -26 -31 0
-9 -18 -26 -36 0
-9 -18 -31 -36 0
-9 -18 -26 -31 -36 0
-9 -26 -31 -36 0
-9 -18 -26 -31 -36 0
-18 -26 -31 -36 0
1 9 18 26 0
1 9 18 31 0
1 9 18 36 0
1 9 26 31 0
1 9 26 36 0
1 9 31 36 0
1 18 26 31 0
1 18 26 36 0
1 18 31 36 0
1 26 31 36 0
1 9 18 26 31 0
1 9 18 26 36 0
1 9 18 31 36 0
1 9 26 31 36 0
1 18 26 31 36 0
1 9 18 26 31 0
1 9 18 26 36 0
1 9 18 31 36 0
1 9 26 31 36 0
1 18 26 31 36 0
1 9 18 26 31 36 0
9 18 26 31 0
9 18 26 36 0
9 18 31 36 0
9 26 31 36 0
18 26 31 36 0
9 18 26 31 36 0
9 18 26 31 36 0
-2 -5 -13 -19 -23 0
-2 -5 -13 -19 -27 0
-2 -5 -13 -19 -37 0
-2 -5 -13 -23 -27 0
-2 -5 -13 -23 -37 0
-2 -5 -13 -27 -37 0
-2 -5 -19 -23 -27 0
-2 -5 -19 -23 -37 0
-2 -5 -19 -27 -37 0
-2 -5 -23 -27 -37 0
-2 -5 -13 -19 -23 -27 0
-2 -5 -13 -19 -23 -37 0
-2 -5 -13 -19 -27 -37 0
-2 -5 -13 -23 -27 -37 0
-2 -5 -19 -23 -27 -37 0
-2 -13 -19 -23 -27 0
-2 -13 -19 -23 -37 0
-2 -13 -19 -27 -37 0
-2 -13 -23 -27 -37 0
-2 -19 -23 -27 -37 0
-2 -13 -19 -23 -27 -37 0
-5 -13 -19 -23 -27 0
-5 -13 -19 -23 -37 0
-5 -13 -19 -27 -37 0
-5 -13 -23 -27 -37 0
-5 -19 -23 -27 -37 0
-5 -13 -19 -23 -27 -37 0
-13 -19 -23 -27 -37 0
2 5 13 19 23 0
2 5 13 19 27 0
2 5 13 19 0
2 5 13 19 37 0
2 5 13 23 27 0
2 5 13 23 0
2 5 13 23 37 0
2 5 13 27 0
2 5 13 27 37 0
2 5 13 37 0
2 5 19 23 27 0
2 5 19 23 0
2 5 19 23 37 0
2 5 19 27 0
2 5 19 27 37 0
2 5 19 37 0
2 5 23 27 0
2 5 23 27 37 0
2 5 23 37 0
2 5 27 37 0
2 13 19 23 27 0
2 13 19 23 0
2 13 19 23 37 0
2 13 19 27 0
2 13 19 27 37 0
2 13 19 37 0
2 13 23 27 0
2 13 23 27 37 0
2 13 23 37 0
2 13 27 37 0
2 19 23 27 0
2 19 23 27 37 0
2 19 23 37 0
2 19 27 37 0
2 23 27 37 0
2 5 13 19 23 27 0
2 5 13 19 23 0
2 5 13 19 23 37 0
2 5 13 19 27 0
2 5 13 19 27 37 0
2 5 13 19 37 0
2 5 13 23 27 0
2 5 13 23 27 37 0
2 5 13 23 37 0
2 5 13 27 37 0
2 5 19 23 27 0
2 5 19 23 27 37 0
2 5 19 23 37 0
2 5 19 27 37 0
2 5 23 27 37 0
2 13 19 23 27 0
2 13 19 23 27 37 0
2 13 19 23 37 0
2 13 19 27 37 0
2 13 23 27 37 0
2 19 23 27 37 0
5 13 19 23 27 0
5 13 19 23 0
5 13 19 23 37 0
5 13 19 27 0
5 13 19 27 37 0
5 13 19 37 0
5 13 23 27 0
5 13 23 27 37 0
5 13 23 37 0
5 13 27 37 0
5 19 23 27 0
5 19 23 27 37 0
5 19 23 37 0
5 19 27 37 0
5 23 27 37 0
13 19 23 27 0
13 19 23 27 37 0
13 19 23 37 0
13 19 27 37 0
13 23 27 37 0
19 23 27 37 0
5 13 19 23 27 0
5 13 19 23 27 37 0
5 13 19 23 37 0
5 13 19 27 37 0
5 13 23 27 37 0
5 19 23 27 37 0
13 19 23 27 37 0
-3 -10 -14 -20 0
-3 -10 -14 -28 0
-3 -10 -14 -32 0
-3 -10 -14 -38 0
-3 -10 -20 -28 0
-3 -10 -20 -32 0
-3 -10 -20 -38 0
-3 -10 -28 -32 0
-3 -10 -28 -38 0
-3 -10 -32 -38 0
-3 -14 -20 -28 0
-3 -14 -20 -32 0
-3 -14 -20 -38 0
-3 -14 -28 -32 0
-3 -14 -28 -38 0
-3 -14 -32 -38 0
-3 -20 -28 -32 0
-3 -20 -28 -38 0
-3 -20 -32 -38 0
-3 -28 -32 -38 0
-3 -10 -14 -20 -28 0
-3 -10 -14 -20 -32 0
-3 -10 -14 -20 -38 0
-3 -10 -14 -28 -32 0
-3 -10 -14 -28 -38 0
-3 -10 -14 -32 -38 0
-3 -10 -20 -28 -32 0
-3 -10 -20 -28 -38 0
-3 -10 -20 -32 -38 0
-3 -10 -28 -32 -38 0
-3 -14 -20 -28 -32 0
-3 -14 -20 -28 -38 0
-3 -14 -20 -32 -38 0
-3 -14 -28 -32 -38 0
-3 -20 -28 -32 -38 0
-3 -10 -14 -20 -28 0
-3 -10 -14 -20 -32 0
-3 -10 -14 -20 -38 0
-3 -10 -14 -28 -32 0
-3 -10 -14 -28 -38 0
-3 -10 -14 -32 -38 0
-3 -10 -20 -28 -32 0
-3 -10 -20 -28 -38 0
-3 -10 -20 -32 -38 0
-3 -10 -28 -32 -38 0
-3 -14 -20 -28 -32 0
-3 -14 -20 -28 -38 0
-3 -14 -20 -32 -38 0
-3 -14 -28 -32 -38 0
-3 -20 -28 -32 -38 0
-3 -10 -14 -20 -28 -32 0
-3 -10 -14 -20 -28 -38 0
-3 -10 -14 -20 -32 -38 0
-3 -10 -14 -28 -32 -38 0
-3 -10 -20 -28 -32 -38 0
-3 -14 -20 -28 -32 -38 0
-10 -14 -20 -28 0
-10 -14 -20 -32 0
-10 -14 -20 -38 0
-10 -14 -28 -32 0
-10 -14 -28 -38 0
-10 -14 -32 -38 0
-10 -20 -28 -32 0
-10 -20 -28 -38 0
-10 -20 -32 -38 0
-10 -28 -32 -38 0
-14 -20 -28 -32 0
-14 -20 -28 -38 0
-14 -20 -32 -38 0
-14 -28 -32 -38 0
-20 -28 -32 -38 0
-10 -14 -20 -28 -32 0
-10 -14 -20 -28 -38 0
-10 -14 -20 -32 -38 0
-10 -14 -28 -32 -38 0
-10 -20 -28 -32 -38 0
-14 -20 -28 -32 -38 0
-10 -14 -20 -28 -32 0
-10 -14 -20 -28 -38 0
-10 -14 -20 -32 -38 0
-10 -14 -28 -32 -38 0
-10 -20 -28 -32 -38 0
-14 -20 -28 -32 -38 0
-10 -14 -20 -28 -32 -38 0
3 10 14 20 28 0
3 10 14 20 32 0
3 10 14 20 38 0
3 10 14 20 28 32 0
3 10 14 20 28 38 0
3 10 14 20 32 38 0
3 10 14 28 32 0
3 10 14 28 38 0
3 10 14 32 38 0
3 10 14 28 32 38 0
3 10 20 28 32 0
3 10 20 28 38 0
3 10 20 32 38 0
3 10 20 28 32 38 0
3 10 28 32 38 0
3 14 20 28 32 0
3 14 20 28 38 0
3 14 20 32 38 0
3 14 20 28 32 38 0
3 14 28 32 38 0
3 20 28 32 38 0
10 14 20 28 32 0
10 14 20 28 38 0
10 14 20 32 38 0
10 14 20 28 32 38 0
10 14 28 32 38 0
10 20 28 32 38 0
14 20 28 32 38 0
-4 -6 -11 -15 -21 -24 0
-4 -6 -11 -15 -21 -29 0
-4 -6 -11 -15 -21 -33 0
-4 -6 -11 -15 -21 -39 0
-4 -6 -11 -15 -24 -29 0
-4 -6 -11 -15 -24 -33 0
-4 -6 -11 -15 -24 -39 0
-4 -6 -11 -15 -29 -33 0
-4 -6 -11 -15 -29 -39 0
-4 -6 -11 -15 -33 -39 0
-4 -6 -11 -21 -24 -29 0
-4 -6 -11 -21 -24 -33 0
-4 -6 -11 -21 -24 -39 0
-4 -6 -11 -21 -29 -33 0
-4 -6 -11 -21 -29 -39 0
-4 -6 -11 -21 -33 -39 0
-4 -6 -11 -24 -29 -33 0
-4 -6 -11 -24 -29 -39 0
-4 -6 -11 -24 -33 -39 0
-4 -6 -11 -29 -33 -39 0
-4 -6 -15 -21 -24 -29 0
-4 -6 -15 -21 -24 -33 0
-4 -6 -15 -21 -24 -39 0
-4 -6 -15 -21 -29 -33 0
-4 -6 -15 -21 -29 -39 0
-4 -6 -15 -21 -33 -39 0
-4 -6 -15 -24 -29 -33 0
-4 -6 -15 -24 -29 -39 0
-4 -6 -15 -24 -33 -39 0
-4 -6 -15 -29 -33 -39 0
-4 -6 -21 -24 -29 -33 0
-4 -6 -21 -24 -29 -39 0
-4 -6 -21 -24 -33 -39 0
-4 -6 -21 -29 -33 -39 0
-4 -6 -24 -29 -33 -39 0
-4 -11 -15 -21 -24 -29 0
-4 -11 -15 -21 -24 -33 0
-4 -11 -15 -21 -24 -39 0
-4 -11 -15 -21 -29 -33 0
-4 -11 -15 -21 -29 -39 0
-4 -11 -15 -21 -33 -39 0
-4 -11 -15 -24 -29 -33 0
-4 -11 -15 -24 -29 -39 0
-4 -11 -15 -24 -33 -39 0
-4 -11 -15 -29 -33 -39 0
-4 -11 -21 -24 -29 -33 0
-4 -11 -21 -24 -29 -39 0
-4 -11 -21 -24 -33 -39 0
-4 -11 -21 -29 -33 -39 0
-4 -11 -24 -29 -33 -39 0
-4 -15 -21 -24 -29 -33 0
-4 -15 -21 -24 -29 -39 0
-4 -15 -21 -24 -33 -39 0
-4 -15 -21 -29 -33 -39 0
-4 -15 -24 -29 -33 -39 0
-4 -21 -24 -29 -33 -39 0
-6 -11 -15 -21 -24 -29 0
-6 -11 -15 -21 -24 -33 0
-6 -11 -15 -21 -24 -39 0
-6 -11 -15 -21 -29 -33 0
-6 -11 -15 -21 -29 -39 0
-6 -11 -15 -21 -33 -39 0
-6 -11 -15 -24 -29 -33 0
-6 -11 -15 -24 -29 -39 0
-6 -11 -15 -24 -33 -39 0
-6 -11 -15 -29 -33 -39 0
-6 -11 -21 -24 -29 -33 0
-6 -11 -21 -24 -29 -39 0
-6 -11 -21 -24 -33 -39 0
-6 -11 -21 -29 -33 -39 0
-6 -11 -24 -29 -33 -39 0
-6 -15 -21 -24 -29 -33 0
-6 -15 -21 -24 -29 -39 0
-6 -15 -21 -24 -33 -39 0
-6 -15 -21 -29 -33 -39 0
-6 -15 -24 -29 -33 -39 0
-6 -21 -24 -29 -33 -39 0
-11 -15 -21 -24 -29 -33 0
-11 -15 -21 -24 -29 -39 0
-11 -15 -21 -24 -33 -39 0
-11 -15 -21 -29 -33 -39 0
-11 -15 -24 -29 -33 -39 0
-11 -21 -24 -29 -33 -39 0
-15 -21 -24 -29 -33 -39 0
4 6 11 15 21 0
4 6 11 15 24 0
4 6 11 15 29 0
4 6 11 15 33 0
4 6 11 15 39 0
4 6 11 21 24 0
4 6 11 21 29 0
4 6 11 21 33 0
4 6 11 21 39 0
4 6 11 24 29 0
4 6 11 24 33 0
4 6 11 24 39 0
4 6 11 29 33 0
4 6 11 29 39 0
4 6 11 33 39 0
4 6 15 21 24 0
4 6 15 21 29 0
4 6 15 21 33 0
4 6 15 21 39 0
4 6 15 24 29 0
4 6 15 24 33 0
4 6 15 24 39 0
4 6 15 29 33 0
4 6 15 29 39 0
4 6 15 33 39 0
4 6 21 24 29 0
4 6 21 24 33 0
4 6 21 24 39 0
4 6 21 29 33 0
4 6 21 29 39 0
4 6 21 33 39 0
4 6 24 29 33 0
4 6 24 29 39 0
4 6 24 33 39 0
4 6 29 33 39 0
4 11 15 21 24 0
4 11 15 21 29 0
4 11 15 21 33 0
4 11 15 21 39 0
4 11 15 24 29 0
4 11 15 24 33 0
4 11 15 24 39 0
4 11 15 29 33 0
4 11 15 29 39 0
4 11 15 33 39 0
4 11 21 24 29 0
4 11 21 24 33 0
4 11 21 24 39 0
4 11 21 29 33 0
4 11 21 29 39 0
4 11 21 33 39 0
4 11 24 29 33 0
4 11 24 29 39 0
4 11 24 33 39 0
4 11 29 33 39 0
4 15 21 24 29 0
4 15 21 24 33 0
4 15 21 24 39 0
4 15 21 29 33 0
4 15 21 29 39 0
4 15 21 33 39 0
4 15 24 29 33 0
4 15 24 29 39 0
4 15 24 33 39 0
4 15 29 33 39 0
4 21 24 29 33 0
4 21 24 29 39 0
4 21 24 33 39 0
4 21 29 33 39 0
4 24 29 33 39 0
4 6 11 15 21 24 0
4 6 11 15 21 29 0
4 6 11 15 21 33 0
4 6 11 15 21 39 0
4 6 11 15 24 29 0
4 6 11 15 24 33 0
4 6 11 15 24 39 0
4 6 11 15 29 33 0
4 6 11 15 29 39 0
4 6 11 15 33 39 0
4 6 11 21 24 29 0
4 6 11 21 24 33 0
4 6 11 21 24 39 0
4 6 11 21 29 33 0
4 6 11 21 29 39 0
4 6 11 21 33 39 0
4 6 11 24 29 33 0
4 6 11 24 29 39 0
4 6 11 24 33 39 0
4 6 11 29 33 39 0
4 6 15 21 24 29 0
4 6 15 21 24 33 0
4 6 15 21 24 39 0
4 6 15 21 29 33 0
4 6 15 21 29 39 0
4 6 15 21 33 39 0
4 6 15 24 29 33 0
4 6 15 24 29 39 0
4 6 15 24 33 39 0
4 6 15 29 33 39 0
4 6 21 24 29 33 0
4 6 21 24 29 39 0
4 6 21 24 33 39 0
4 6 21 29 33 39 0
4 6 24 29 33 39 0
4 11 15 21 24 29 0
4 11 15 21 24 33 0
4 11 15 21 24 39 0
4 11 15 21 29 33 0
4 11 15 21 29 39 0
4 11 15 21 33 39 0
4 11 15 24 29 33 0
4 11 15 24 29 39 0
4 11 15 24 33 39 0
4 11 15 29 33 39 0
4 11 21 24 29 33 0
4 11 21 24 29 39 0
4 11 21 24 33 39 0
4 11 21 29 33 39 0
4 11 24 29 33 39 0
4 15 21 24 29 33 0
4 15 21 24 29 39 0
4 15 21 24 33 39 0
4 15 21 29 33 39 0
4 15 24 29 33 39 0
4 21 24 29 33 39 0
6 11 15 21 24 0
6 11 15 21 29 0
6 11 15 21 33 0
6 11 15 21 39 0
6 11 15 24 29 0
6 11 15 24 33 0
6 11 15 24 39 0
6 11 15 29 33 0
6 11 15 29 39 0
6 11 15 33 39 0
6 11 21 24 29 0
6 11 21 24 33 0
6 11 21 24 39 0
6 11 21 29 33 0
6 11 21 29 39 0
6 11 21 33 39 0
6 11 24 29 33 0
6 11 24 29 39 0
6 11 24 33 39 0
6 11 29 33 39 0
6 15 21 24 29 0
6 15 21 24 33 0
6 15 21 24 39 0
6 15 21 29 33 0
6 15 21 29 39 0
6 15 21 33 39 0
6 15 24 29 33 0
6 15 24 29 39 0
6 15 24 33 39 0
6 15 29 33 39 0
6 21 24 29 33 0
6 21 24 29 39 0
6 21 24 33 39 0
6 21 29 33 39 0
6 24 29 33 39 0
11 15 21 24 29 0
11 15 21 24 33 0
11 15 21 24 39 0
11 15 21 29 33 0
11 15 21 29 39 0
11 15 21 33 39 0
11 15 24 29 33 0
11 15 24 29 39 0
11 15 24 33 39 0
11 15 29 33 39 0
11 21 24 29 33 0
11 21 24 29 39 0
11 21 24 33 39 0
11 21 29 33 39 0
11 24 29 33 39 0
15 21 24 29 33 0
15 21 24 29 39 0
15 21 24 33 39 0
15 21 29 33 39 0
15 24 29 33 39 0
21 24 29 33 39 0
6 11 15 21 24 29 0
6 11 15 21 24 33 0
6 11 15 21 24 39 0
6 11 15 21 29 33 0
6 11 15 21 29 39 0
6 11 15 21 33 39 0
6 11 15 24 29 33 0
6 11 15 24 29 39 0
6 11 15 24 33 39 0
6 11 15 29 33 39 0
6 11 21 24 29 33 0
6 11 21 24 29 39 0
6 11 21 24 33 39 0
6 11 21 29 33 39 0
6 11 24 29 33 39 0
6 15 21 24 29 33 0
6 15 21 24 29 39 0
6 15 21 24 33 39 0
6 15 21 29 33 39 0
6 15 24 29 33 39 0
6 21 24 29 33 39 0
11 15 21 24 29 33 0
11 15 21 24 29 39 0
11 15 21 24 33 39 0
11 15 21 29 33 39 0
11 15 24 29 33 39 0
11 21 24 29 33 39 0
15 21 24 29 33 39 0
-7 -16 -22 0
-7 -16 0
-7 -16 -30 0
-7 -16 -34 0
-7 -22 0
-7 -22 -30 0
-7 -22 -34 0
-7 -30 0
-7 -34 0
-7 -30 -34 0
-7 -16 -22 0
-7 -16 -22 -30 0
-7 -16 -22 -34 0
-7 -16 -30 0
-7 -16 -34 0
-7 -16 -30 -34 0
-7 -22 -30 0
-7 -22 -34 0
-7 -22 -30 -34 0
-7 -30 -34 0
-16 -22 0
-16 -22 -30 0
-16 -22 -34 0
-16 -30 0
-16 -34 0
-16 -30 -34 0
-22 -30 0
-22 -34 0
-22 -30 -34 0
-30 -34 0
-16 -22 -30 0
-16 -22 -34 0
-16 -22 -30 -34 0
-16 -30 -34 0
-22 -30 -34 0
-7 -16 -22 0
-7 -16 -22 -30 0
-7 -16 -22 -34 0
-7 -16 -30 0
-7 -16 -34 0
-7 -16 -30 -34 0
-7 -22 -30 0
-7 -22 -34 0
-7 -22 -30 -34 0
-7 -30 -34 0
-7 -16 -22 -30 0
-7 -16 -22 -34 0
-7 -16 -22 -30 -34 0
-7 -16 -30 -34 0
-7 -22 -30 -34 0
-16 -22 -30 0
-16 -22 -34 0
-16 -22 -30 -34 0
-16 -30 -34 0
-22 -30 -34 0
-16 -22 -30 -34 0
-7 -16 -22 0
-7 -16 -22 -30 0
-7 -16 -22 -34 0
-7 -16 -30 0
-7 -16 -34 0
-7 -16 -30 -34 0
-7 -22 -30 0
-7 -22 -34 0
-7 -22 -30 -34 0
-7 -30 -34 0
-7 -16 -22 -30 0
-7 -16 -22 -34 0
-7 -16 -22 -30 -34 0
-7 -16 -30 -34 0
-7 -22 -30 -34 0
-16 -22 -30 0
-16 -22 -34 0
-16 -22 -30 -34 0
-16 -30 -34 0
-22 -30 -34 0
-16 -22 -30 -34 0
-7 -16 -22 -30 0
-7 -16 -22 -34 0
-7 -16 -22 -30 -34 0
-7 -16 -30 -34 0
-7 -22 -30 -34 0
-7 -16 -22 -30 -34 0
-16 -22 -30 -34 0
7 16 22 30 34 0
-8 -12 -17 0
-8 -12 -17 -25 0
-8 -12 -17 -35 0
-8 -12 -17 -40 0
-8 -12 -25 0
-8 -12 -35 0
-8 -12 -40 0
-8 -12 -25 -35 0
-8 -12 -25 -40 0
-8 -12 -35 -40 0
-8 -17 -25 0
-8 -17 -35 0
-8 -17 -40 0
-8 -17 -25 -35 0
-8 -17 -25 -40 0
-8 -17 -35 -40 0
-8 -25 -35 0
-8 -25 -40 0
-8 -35 -40 0
-8 -25 -35 -40 0
-12 -17 -25 0
-12 -17 -35 0
-12 -17 -40 0
-12 -17 -25 -35 0
-12 -17 -25 -40 0
-12 -17 -35 -40 0
-12 -25 -35 0
-12 -25 -40 0
-12 -35 -40 0
-12 -25 -35 -40 0
-17 -25 -35 0
-17 -25 -40 0
-17 -35 -40 0
-17 -25 -35 -40 0
-25 -35 -40 0
-8 -12 -17 -25 0
-8 -12 -17 -35 0
-8 -12 -17 -40 0
-8 -12 -17 -25 -35 0
-8 -12 -17 -25 -40 0
-8 -12 -17 -35 -40 0
-8 -12 -25 -35 0
-8 -12 -25 -40 0
-8 -12 -35 -40 0
-8 -12 -25 -35 -40 0
-8 -17 -25 -35 0
-8 -17 -25 -40 0
-8 -17 -35 -40 0
-8 -17 -25 -35 -40 0
-8 -25 -35 -40 0
-12 -17 -25 -35 0
-12 -17 -25 -40 0
-12 -17 -35 -40 0
-12 -17 -25 -35 -40 0
-12 -25 -35 -40 0
-17 -25 -35 -40 0
-8 -12 -17 -25 0
-8 -12 -17 -35 0
-8 -12 -17 -40 0
-8 -12 -17 -25 -35 0
-8 -12 -17 -25 -40 0
-8 -12 -17 -35 -40 0
-8 -12 -25 -35 0
-8 -12 -25 -40 0
-8 -12 -35 -40 0
-8 -12 -25 -35 -40 0
-8 -17 -25 -35 0
-8 -17 -25 -40 0
-8 -17 -35 -40 0
-8 -17 -25 -35 -40 0
-8 -25 -35 -40 0
-12 -17 -25 -35 0
-12 -17 -25 -40 0
-12 -17 -35 -40 0
-12 -17 -25 -35 -40 0
-12 -25 -35 -40 0
-17 -25 -35 -40 0
-8 -12 -17 -25 -35 0
-8 -12 -17 -25 -40 0
-8 -12 -17 -35 -40 0
-8 -12 -17 -25 -35 -40 0
-8 -12 -25 -35 -40 0
-8 -17 -25 -35 -40 0
-12 -17 -25 -35 -40 0
8 12 17 25 35 0
8 12 17 25 40 0
8 12 17 25 35 40 0
8 12 17 35 40 0
8 12 25 35 40 0
8 17 25 35 40 0
12 17 25 35 40 0
